p cnf 14 29
-14 13 -9 0
14 -12 -9 0
14 -12 2 0
-14 -11 -9 0
14 -7 -1 0
14 4 2 0
-13 12 -7 0
13 12 -4 0
-13 -11 -10 0
13 10 -8 0
13 10 -4 0
13 -9 5 0
-13 8 -3 0
-13 -8 1 0
12 11 2 0
12 11 1 0
12 10 -8 0
12 7 -4 0
12 -5 -3 0
12 -4 2 0
-11 -10 8 0
-11 9 -3 0
11 -5 -3 0
-10 -7 -1 0
10 -5 2 0
-8 5 -3 0
-8 4 2 0
-7 4 2 0
-7 3 1 0
